language Essence 1.3
$ generated by bacp-gen.pl with seed 4040974887
$ edge probability 0.1044
$ course loads in range 2..6
letting n_courses be 120
letting n_periods be 24
letting load_per_period_lb be 3
letting load_per_period_ub be 37
letting courses_per_period_lb be 5
letting courses_per_period_ub be 8
letting course_load be function(
1 --> 5,
2 --> 4,
3 --> 2,
4 --> 2,
5 --> 6,
6 --> 5,
7 --> 5,
8 --> 2,
9 --> 4,
10 --> 4,
11 --> 3,
12 --> 4,
13 --> 5,
14 --> 5,
15 --> 2,
16 --> 3,
17 --> 2,
18 --> 4,
19 --> 5,
20 --> 5,
21 --> 6,
22 --> 3,
23 --> 4,
24 --> 5,
25 --> 3,
26 --> 4,
27 --> 2,
28 --> 3,
29 --> 2,
30 --> 4,
31 --> 2,
32 --> 4,
33 --> 6,
34 --> 3,
35 --> 2,
36 --> 2,
37 --> 5,
38 --> 4,
39 --> 3,
40 --> 6,
41 --> 3,
42 --> 3,
43 --> 5,
44 --> 4,
45 --> 5,
46 --> 5,
47 --> 6,
48 --> 2,
49 --> 2,
50 --> 3,
51 --> 6,
52 --> 5,
53 --> 6,
54 --> 3,
55 --> 3,
56 --> 4,
57 --> 3,
58 --> 4,
59 --> 3,
60 --> 5,
61 --> 6,
62 --> 6,
63 --> 4,
64 --> 3,
65 --> 2,
66 --> 2,
67 --> 5,
68 --> 3,
69 --> 3,
70 --> 2,
71 --> 4,
72 --> 2,
73 --> 4,
74 --> 5,
75 --> 4,
76 --> 2,
77 --> 2,
78 --> 3,
79 --> 2,
80 --> 6,
81 --> 3,
82 --> 2,
83 --> 5,
84 --> 3,
85 --> 4,
86 --> 2,
87 --> 3,
88 --> 5,
89 --> 2,
90 --> 3,
91 --> 2,
92 --> 3,
93 --> 3,
94 --> 5,
95 --> 3,
96 --> 4,
97 --> 4,
98 --> 4,
99 --> 3,
100 --> 5,
101 --> 3,
102 --> 4,
103 --> 2,
104 --> 2,
105 --> 5,
106 --> 3,
107 --> 5,
108 --> 2,
109 --> 2,
110 --> 5,
111 --> 2,
112 --> 4,
113 --> 4,
114 --> 3,
115 --> 3,
116 --> 2,
117 --> 3,
118 --> 4,
119 --> 5,
120 --> 2
)
$ layers: 15 79 26
$ max edges per layer: 1185 2054
$ generating 338 edges
letting prerequisite be relation (
(3,16),
(1,17),
(4,18),
(9,19),
(3,20),
(3,21),
(8,22),
(9,23),
(3,24),
(2,25),
(6,26),
(14,27),
(7,28),
(3,29),
(14,30),
(3,31),
(10,32),
(6,33),
(3,34),
(9,35),
(1,36),
(14,37),
(10,38),
(5,39),
(1,40),
(9,41),
(14,42),
(9,43),
(10,44),
(13,45),
(4,46),
(10,47),
(4,48),
(1,49),
(11,50),
(12,51),
(11,52),
(5,53),
(7,54),
(6,55),
(13,56),
(10,57),
(1,58),
(8,59),
(5,60),
(15,61),
(5,62),
(4,63),
(15,64),
(8,65),
(1,66),
(5,67),
(14,68),
(15,69),
(12,70),
(13,71),
(13,72),
(3,73),
(6,74),
(11,75),
(12,76),
(1,77),
(10,78),
(9,79),
(2,80),
(9,81),
(10,82),
(12,83),
(14,84),
(4,85),
(6,86),
(3,87),
(5,88),
(11,89),
(8,90),
(11,91),
(14,92),
(12,93),
(11,94),
(68,95),
(30,96),
(86,97),
(46,98),
(58,99),
(74,100),
(47,101),
(81,102),
(40,103),
(92,104),
(72,105),
(47,106),
(37,107),
(85,108),
(83,109),
(72,110),
(21,111),
(22,112),
(89,113),
(92,114),
(40,115),
(92,116),
(31,117),
(67,118),
(50,119),
(51,120),
(5,55),
(11,48),
(22,109),
(1,57),
(80,115),
(14,34),
(54,111),
(11,54),
(12,82),
(4,54),
(51,112),
(13,16),
(7,73),
(6,37),
(7,76),
(5,19),
(8,80),
(38,117),
(76,118),
(15,52),
(12,48),
(23,109),
(6,59),
(62,117),
(4,71),
(6,72),
(7,94),
(45,105),
(25,101),
(11,28),
(9,34),
(28,102),
(92,98),
(39,105),
(14,18),
(13,62),
(40,100),
(70,99),
(9,22),
(82,105),
(16,105),
(14,17),
(65,101),
(87,117),
(6,69),
(6,56),
(61,104),
(88,120),
(88,112),
(10,50),
(45,100),
(7,41),
(65,107),
(34,113),
(6,90),
(90,107),
(6,41),
(61,108),
(32,108),
(4,57),
(13,79),
(6,58),
(4,20),
(7,68),
(8,38),
(14,86),
(14,75),
(5,47),
(4,23),
(13,78),
(45,106),
(9,27),
(92,101),
(6,38),
(79,100),
(2,24),
(82,110),
(4,47),
(3,38),
(3,62),
(8,25),
(8,43),
(12,17),
(3,84),
(87,101),
(85,101),
(4,36),
(2,94),
(2,72),
(8,17),
(12,23),
(11,72),
(2,55),
(89,107),
(58,96),
(1,88),
(6,54),
(5,91),
(86,104),
(59,96),
(1,53),
(78,110),
(3,59),
(14,78),
(94,107),
(77,108),
(55,105),
(15,36),
(66,113),
(12,41),
(30,116),
(84,120),
(36,116),
(93,103),
(9,20),
(33,99),
(1,46),
(15,27),
(60,99),
(9,46),
(11,36),
(10,59),
(8,30),
(16,99),
(38,100),
(50,100),
(90,96),
(15,72),
(7,24),
(93,115),
(3,66),
(9,86),
(12,61),
(18,115),
(14,77),
(80,119),
(83,97),
(10,34),
(18,112),
(5,58),
(2,21),
(24,102),
(4,84),
(68,107),
(74,97),
(85,107),
(10,91),
(9,50),
(50,106),
(64,101),
(17,116),
(13,94),
(14,70),
(38,104),
(79,118),
(7,46),
(4,49),
(41,111),
(13,77),
(15,21),
(74,108),
(83,119),
(90,108),
(2,75),
(57,114),
(9,91),
(66,96),
(19,115),
(11,78),
(44,104),
(64,102),
(11,21),
(3,33),
(74,95),
(13,60),
(47,111),
(24,103),
(35,101),
(77,113),
(60,102),
(37,109),
(13,46),
(13,39),
(65,97),
(15,19),
(57,105),
(18,101),
(2,74),
(4,91),
(61,103),
(4,44),
(24,101),
(59,114),
(15,94),
(32,116),
(50,111),
(6,62),
(8,64),
(11,61),
(40,111),
(8,21),
(92,105),
(81,115),
(6,57),
(24,97),
(13,29),
(14,36),
(69,114),
(54,107),
(6,60),
(67,99),
(3,22),
(65,113),
(76,114),
(5,41),
(62,113),
(77,101),
(2,67),
(19,106),
(44,115),
(35,97),
(15,93),
(85,114),
(12,84),
(14,85),
(67,107),
(42,108),
(15,58),
(34,95),
(10,41),
(87,113),
(70,95),
(63,105)
)
